67 67
46 20
5 1
4 6
25 4
9 33
20 30
45 12
62 14
55 24
30 16
41 7
8 3
44 30
54 18
28 5
63 28
66 16
37 25
59 17
34 25
39 6
18 29
53 8
61 32
56 15
7 10
36 8
10 2
64 22
11 11
12 11
35 23
43 9
57 10
48 21
21 7
19 15
51 26
13 13
38 27
26 13
27 19
58 2
15 32
47 9
33 28
67 5
14 17
65 23
22 12
24 31
23 27
6 29
1 34
29 26
16 33
49 31
50 20
42 4
40 14
2 1
31 3
32 24
52 18
60 22
17 19
3 21
